293,124
453,332
482,342
334,229
281,202
622,415
677,435
795,369
891,406
858,434
937,323
947,213
554,279
469,194
681,16
765,-127
994,305
1041,406
923,582
874,672
892,697
888,438
918,443
875,547
723,672
532,700
488,672
531,406
611,503
616,-8
718,292
436,887
602,909
898,833
737,761
826,511
820,-21
681,-134
